PROBLEM NAME: eil51_n15
KNAPSACK DATA TYPE: uncorrelated, similar weights
DIMENSION: 15
NUMBER OF ITEMS: 14
CAPACITY OF KNAPSACK: 127339
MIN SPEED: 0.1
MAX SPEED: 1
RENTING RATIO: 1.12
EDGE_WEIGHT_TYPE: CEIL_2D
NODE_COORD_SECTION	(INDEX, X, Y):
1	49	49
2	52	64
3	52	41
4	62	42
5	42	57
6	7	38
7	27	68
8	43	67
9	58	27
10	38	46
11	62	63
12	5	6
13	32	39
14	25	55
15	48	28
ITEMS SECTION	(INDEX, PROFIT, WEIGHT, ASSIGNED NODE NUMBER):
1	955	100045	5
2	901	100058	10
3	845	100014	13
4	795	100036	12
5	485	100093	6
6	421	100091	14
7	326	100005	7
8	322	100048	8
9	252	100021	2
10	248	100015	11
11	122	100066	4
12	94	100097	9
13	43	100056	15
14	9	100090	3
